&control
    calculation = 'bands'
    restart_mode='from_scratch'
    prefix = 'MoS2'
    pseudo_dir = '/home/dashlander/Desktop/Sem7/CPD/Assignment_3/pseudo'

    wf_collect    = .true.
    verbosity     = 'high'
    forc_conv_thr = 0.01D-3
    etot_conv_thr = 1D-6
/
&system
    ibrav       = 4,
    celldm(1)   = 6.02882349219,
    celldm(3)   = 4.66380258256,
    nat         = 6,
    ntyp        = 2,
    ecutwfc     = 37
    nbnd        = 28
/
&electrons
    conv_thr         = 1.0e-10
    electron_maxstep = 100,
    mixing_mode      = 'plain'
    mixing_beta      = 0.1
    diagonalization  ='cg'
/
&ions
    ion_dynamics = 'bfgs'
/

ATOMIC_SPECIES
S  32.065  S.pbe-mt_fhi.UPF
Mo 95.94  Mo.pbe-mt_fhi.UPF

ATOMIC_POSITIONS {crystal}
S     0.333333000   0.666667000   0.144245583
S     0.666667000   0.333333000   0.644245583
S     0.333333000   0.666667000   0.355754417
S     0.666667000   0.333333000   0.855754417
Mo    0.666667000   0.333333000   0.250000000
Mo    0.333333000   0.666667000   0.750000000

K_POINTS {crystal_b}
4
    0.0000000000	   0.0000000000	    0.0000000000 40 !Gamma
    0.3333333333	   0.3333333333	    0.0000000000 20 !K
    0.5000000000	   0.0000000000	    0.0000000000 30 !M
    0.0000000000	   0.0000000000	    0.0000000000 40 !Gamma

    
